benchmarks_CP/INST_36x36/20/inst36x36_20_86.dzn
S=6;
start=[|
33,	-1,	-1,	-1,	-1,	-1,	-1,	-1,	-1,	7,	-1,	-1,	2,	-1,	34,	10,	-1,	-1,	3,	-1,	-1,	5,	-1,	-1,	-1,	-1,	-1,	-1,	-1,	-1,	8,	23,	-1,	-1,	-1,	-1|
-1,	12,	-1,	-1,	23,	-1,	-1,	-1,	4,	-1,	-1,	-1,	-1,	-1,	-1,	-1,	-1,	-1,	-1,	-1,	-1,	-1,	-1,	-1,	25,	-1,	-1,	-1,	-1,	-1,	-1,	-1,	-1,	32,	-1,	17|
-1,	-1,	-1,	-1,	-1,	24,	-1,	-1,	34,	-1,	-1,	-1,	-1,	-1,	-1,	-1,	-1,	-1,	-1,	-1,	10,	29,	-1,	-1,	-1,	-1,	-1,	-1,	-1,	8,	11,	-1,	-1,	-1,	-1,	-1|
-1,	-1,	-1,	-1,	-1,	-1,	20,	18,	-1,	-1,	-1,	25,	3,	-1,	-1,	-1,	-1,	-1,	-1,	-1,	-1,	-1,	-1,	-1,	-1,	-1,	-1,	-1,	16,	-1,	6,	-1,	22,	-1,	-1,	5|
-1,	-1,	-1,	-1,	-1,	34,	-1,	-1,	5,	13,	-1,	27,	-1,	-1,	-1,	20,	-1,	7,	-1,	9,	-1,	-1,	-1,	-1,	6,	-1,	-1,	-1,	-1,	4,	-1,	-1,	-1,	-1,	1,	10|
-1,	-1,	-1,	-1,	13,	-1,	-1,	10,	-1,	6,	19,	15,	-1,	-1,	-1,	-1,	8,	-1,	-1,	-1,	31,	-1,	-1,	33,	-1,	23,	27,	-1,	-1,	1,	-1,	-1,	-1,	-1,	-1,	-1|
-1,	-1,	20,	-1,	-1,	-1,	-1,	-1,	10,	-1,	-1,	-1,	-1,	16,	-1,	-1,	-1,	-1,	-1,	-1,	-1,	-1,	-1,	-1,	-1,	-1,	-1,	-1,	-1,	-1,	-1,	-1,	-1,	-1,	-1,	12|
-1,	-1,	-1,	32,	-1,	-1,	-1,	-1,	-1,	-1,	31,	26,	23,	9,	-1,	-1,	19,	35,	-1,	-1,	-1,	-1,	-1,	-1,	30,	-1,	-1,	-1,	-1,	-1,	-1,	11,	-1,	10,	-1,	-1|
-1,	-1,	-1,	-1,	-1,	-1,	-1,	21,	-1,	-1,	-1,	-1,	-1,	-1,	-1,	-1,	-1,	26,	-1,	-1,	-1,	-1,	25,	-1,	-1,	-1,	-1,	-1,	-1,	-1,	-1,	-1,	-1,	-1,	-1,	15|
5,	-1,	-1,	-1,	-1,	6,	-1,	19,	20,	28,	2,	-1,	-1,	-1,	25,	-1,	-1,	-1,	-1,	-1,	-1,	-1,	-1,	-1,	-1,	-1,	-1,	-1,	-1,	7,	-1,	-1,	-1,	-1,	-1,	-1|
29,	-1,	-1,	-1,	-1,	10,	-1,	-1,	-1,	-1,	-1,	34,	-1,	-1,	-1,	-1,	33,	-1,	-1,	-1,	-1,	-1,	7,	-1,	-1,	26,	-1,	-1,	20,	-1,	-1,	-1,	-1,	-1,	6,	-1|
-1,	27,	-1,	-1,	24,	25,	-1,	-1,	-1,	-1,	-1,	-1,	-1,	2,	30,	-1,	-1,	-1,	-1,	-1,	14,	-1,	-1,	-1,	-1,	-1,	-1,	-1,	13,	16,	-1,	-1,	-1,	-1,	-1,	7|
-1,	-1,	-1,	27,	-1,	-1,	7,	6,	33,	-1,	-1,	-1,	14,	23,	-1,	-1,	-1,	19,	-1,	22,	-1,	28,	-1,	-1,	-1,	-1,	-1,	-1,	-1,	25,	-1,	-1,	-1,	-1,	-1,	-1|
8,	1,	-1,	-1,	-1,	-1,	18,	-1,	-1,	5,	-1,	-1,	-1,	-1,	-1,	-1,	-1,	-1,	21,	-1,	24,	-1,	-1,	-1,	-1,	-1,	-1,	-1,	-1,	-1,	-1,	-1,	-1,	36,	-1,	25|
-1,	-1,	33,	-1,	-1,	-1,	-1,	-1,	-1,	-1,	-1,	-1,	-1,	15,	-1,	-1,	21,	-1,	-1,	-1,	-1,	-1,	-1,	-1,	-1,	-1,	-1,	-1,	-1,	-1,	-1,	-1,	-1,	-1,	-1,	24|
-1,	-1,	-1,	-1,	-1,	-1,	-1,	-1,	35,	-1,	-1,	4,	24,	33,	-1,	-1,	-1,	1,	-1,	-1,	-1,	-1,	-1,	-1,	-1,	-1,	-1,	7,	-1,	-1,	15,	-1,	14,	-1,	-1,	19|
-1,	4,	-1,	-1,	15,	-1,	-1,	-1,	-1,	-1,	-1,	-1,	-1,	-1,	-1,	-1,	-1,	-1,	-1,	-1,	-1,	-1,	-1,	-1,	-1,	-1,	-1,	-1,	-1,	35,	-1,	27,	-1,	-1,	-1,	-1|
11,	-1,	-1,	-1,	-1,	-1,	-1,	-1,	-1,	-1,	-1,	-1,	-1,	-1,	-1,	-1,	-1,	-1,	-1,	35,	8,	-1,	-1,	-1,	-1,	-1,	-1,	-1,	4,	6,	-1,	-1,	-1,	7,	-1,	-1|
-1,	-1,	-1,	-1,	-1,	-1,	-1,	-1,	-1,	-1,	9,	-1,	-1,	-1,	-1,	-1,	-1,	-1,	-1,	33,	5,	-1,	-1,	22,	-1,	-1,	-1,	-1,	-1,	-1,	-1,	-1,	-1,	-1,	-1,	-1|
-1,	-1,	-1,	8,	-1,	-1,	-1,	13,	-1,	-1,	20,	5,	-1,	-1,	-1,	-1,	-1,	-1,	-1,	25,	-1,	-1,	-1,	-1,	-1,	-1,	4,	-1,	-1,	-1,	-1,	-1,	-1,	3,	16,	-1|
-1,	-1,	24,	19,	-1,	-1,	-1,	8,	25,	-1,	-1,	-1,	9,	-1,	-1,	-1,	-1,	-1,	-1,	4,	7,	-1,	-1,	-1,	-1,	-1,	-1,	-1,	-1,	-1,	-1,	-1,	-1,	-1,	-1,	-1|
-1,	-1,	-1,	2,	11,	-1,	-1,	-1,	-1,	-1,	-1,	21,	-1,	18,	-1,	33,	-1,	16,	-1,	-1,	-1,	36,	-1,	-1,	-1,	-1,	24,	-1,	-1,	20,	-1,	5,	1,	14,	-1,	-1|
16,	-1,	12,	4,	-1,	-1,	6,	-1,	-1,	10,	-1,	-1,	-1,	-1,	-1,	-1,	-1,	-1,	-1,	19,	-1,	-1,	-1,	-1,	-1,	-1,	-1,	15,	35,	-1,	-1,	-1,	-1,	20,	-1,	-1|
-1,	-1,	-1,	-1,	-1,	-1,	31,	-1,	14,	-1,	36,	-1,	-1,	-1,	-1,	-1,	-1,	-1,	-1,	-1,	-1,	-1,	-1,	-1,	-1,	-1,	2,	-1,	-1,	-1,	25,	33,	-1,	-1,	-1,	-1|
27,	-1,	1,	-1,	-1,	-1,	-1,	-1,	29,	-1,	-1,	-1,	-1,	-1,	-1,	-1,	-1,	-1,	-1,	-1,	-1,	-1,	-1,	-1,	-1,	-1,	-1,	-1,	-1,	23,	-1,	-1,	-1,	-1,	-1,	-1|
-1,	-1,	-1,	33,	-1,	-1,	-1,	-1,	-1,	-1,	-1,	-1,	27,	31,	-1,	-1,	-1,	11,	-1,	23,	20,	-1,	-1,	-1,	-1,	-1,	-1,	-1,	-1,	-1,	12,	29,	9,	-1,	-1,	-1|
-1,	-1,	-1,	-1,	-1,	-1,	-1,	-1,	-1,	12,	-1,	-1,	-1,	-1,	-1,	-1,	23,	-1,	-1,	-1,	-1,	-1,	-1,	-1,	-1,	-1,	7,	-1,	-1,	-1,	-1,	-1,	-1,	-1,	-1,	-1|
-1,	-1,	28,	-1,	-1,	-1,	22,	-1,	-1,	-1,	-1,	-1,	-1,	-1,	-1,	-1,	1,	-1,	-1,	-1,	-1,	-1,	-1,	3,	19,	-1,	9,	-1,	12,	-1,	5,	-1,	-1,	-1,	-1,	-1|
-1,	-1,	-1,	-1,	5,	-1,	-1,	30,	-1,	-1,	-1,	-1,	-1,	-1,	-1,	28,	-1,	-1,	-1,	-1,	-1,	12,	-1,	1,	-1,	3,	-1,	-1,	-1,	-1,	2,	-1,	-1,	-1,	-1,	20|
4,	20,	-1,	-1,	9,	-1,	-1,	-1,	-1,	16,	-1,	-1,	22,	-1,	-1,	-1,	-1,	-1,	-1,	-1,	-1,	-1,	-1,	-1,	-1,	33,	-1,	-1,	25,	-1,	-1,	-1,	-1,	34,	-1,	-1|
12,	-1,	-1,	-1,	-1,	-1,	28,	-1,	13,	-1,	-1,	-1,	-1,	-1,	1,	-1,	27,	18,	-1,	-1,	3,	-1,	-1,	-1,	-1,	-1,	-1,	-1,	-1,	-1,	-1,	-1,	-1,	-1,	-1,	-1|
-1,	-1,	-1,	5,	-1,	-1,	-1,	-1,	-1,	27,	-1,	6,	-1,	-1,	3,	14,	17,	31,	-1,	-1,	-1,	-1,	-1,	35,	36,	-1,	-1,	-1,	-1,	-1,	-1,	-1,	-1,	-1,	24,	-1|
-1,	-1,	30,	-1,	-1,	-1,	-1,	-1,	-1,	-1,	-1,	11,	-1,	-1,	-1,	-1,	-1,	-1,	-1,	-1,	-1,	27,	-1,	-1,	17,	10,	-1,	-1,	-1,	-1,	-1,	21,	-1,	-1,	-1,	-1|
-1,	-1,	-1,	-1,	-1,	-1,	-1,	-1,	-1,	-1,	-1,	3,	-1,	7,	-1,	-1,	-1,	28,	-1,	-1,	-1,	-1,	36,	-1,	-1,	-1,	-1,	-1,	-1,	5,	-1,	-1,	15,	-1,	-1,	-1|
-1,	-1,	-1,	-1,	-1,	-1,	-1,	-1,	-1,	2,	-1,	-1,	-1,	-1,	-1,	-1,	-1,	-1,	-1,	-1,	-1,	-1,	-1,	-1,	-1,	-1,	-1,	24,	-1,	-1,	-1,	-1,	-1,	-1,	-1,	-1|
-1,	-1,	-1,	-1,	-1,	-1,	34,	25,	-1,	-1,	-1,	10,	-1,	-1,	-1,	-1,	-1,	-1,	-1,	-1,	-1,	17,	-1,	-1,	-1,	-1,	-1,	-1,	-1,	-1,	1,	-1,	7,	-1,	3,	-1|];
