benchmarks/INST_36x36/20/inst36x36_20_86.txt
6
1
-1	-1	11	-1	4	-1	21	-1	-1	-1	-1	-1	-1	-1	34	-1	-1	-1	-1	-1	-1	-1	-1	-1	-1	31	-1	-1	-1	-1	-1	23	16	-1	19	26
-1	-1	-1	-1	23	8	-1	-1	-1	-1	-1	-1	-1	-1	-1	-1	29	-1	-1	-1	-1	24	-1	6	-1	-1	-1	-1	-1	-1	-1	-1	27	-1	21	-1
3	-1	-1	-1	26	-1	1	-1	-1	36	-1	-1	-1	-1	-1	-1	-1	-1	32	-1	-1	-1	-1	-1	-1	-1	5	-1	21	-1	-1	7	-1	-1	-1	-1
-1	-1	29	28	-1	-1	-1	-1	-1	-1	-1	-1	3	-1	-1	-1	-1	-1	-1	7	1	-1	-1	-1	-1	12	-1	-1	-1	-1	-1	14	-1	-1	9	-1
-1	-1	-1	-1	-1	-1	8	-1	-1	-1	17	27	-1	-1	26	-1	18	-1	14	9	-1	-1	-1	-1	6	-1	-1	-1	3	4	-1	-1	35	-1	-1	-1
-1	-1	7	22	-1	9	-1	-1	-1	6	-1	-1	-1	-1	-1	5	-1	-1	-1	-1	-1	-1	-1	33	-1	-1	27	-1	-1	-1	-1	-1	-1	-1	-1	-1
-1	-1	-1	-1	-1	28	-1	-1	-1	-1	-1	-1	-1	-1	7	-1	-1	-1	-1	-1	-1	-1	-1	-1	-1	36	-1	-1	27	-1	-1	13	-1	-1	-1	-1
-1	-1	-1	32	-1	-1	-1	-1	27	-1	-1	-1	-1	-1	-1	-1	-1	-1	-1	36	-1	21	24	-1	30	-1	-1	-1	-1	28	-1	-1	-1	10	-1	3
-1	8	-1	-1	-1	-1	-1	-1	9	23	-1	-1	-1	-1	-1	-1	28	-1	-1	-1	-1	-1	-1	-1	-1	-1	-1	-1	-1	-1	24	-1	-1	17	-1	15
-1	-1	-1	36	-1	-1	-1	-1	20	-1	-1	-1	17	-1	-1	-1	-1	-1	-1	-1	-1	-1	-1	10	-1	-1	-1	-1	-1	-1	-1	-1	-1	-1	-1	-1
29	-1	-1	-1	-1	-1	-1	-1	-1	25	-1	-1	-1	-1	24	-1	-1	-1	-1	2	-1	23	7	11	-1	-1	-1	-1	-1	-1	-1	-1	5	-1	-1	-1
-1	-1	-1	-1	-1	-1	-1	-1	-1	11	-1	-1	-1	-1	-1	6	-1	-1	-1	-1	14	19	-1	-1	-1	-1	-1	5	-1	-1	-1	18	33	31	-1	-1
-1	-1	-1	-1	21	-1	7	-1	-1	-1	12	-1	-1	-1	-1	-1	-1	-1	31	22	-1	-1	15	-1	13	-1	-1	-1	-1	-1	-1	-1	34	-1	-1	-1
-1	-1	-1	-1	-1	-1	-1	-1	19	-1	-1	-1	-1	-1	-1	-1	-1	-1	-1	14	24	7	-1	-1	34	-1	-1	-1	15	-1	-1	20	-1	-1	-1	-1
14	-1	-1	-1	-1	-1	-1	-1	26	-1	-1	-1	-1	-1	-1	-1	21	-1	-1	-1	-1	-1	-1	-1	-1	32	-1	-1	-1	-1	-1	-1	-1	-1	11	-1
-1	-1	-1	-1	28	29	-1	-1	-1	-1	-1	-1	-1	-1	-1	-1	-1	-1	-1	-1	-1	-1	6	-1	-1	17	-1	-1	-1	30	-1	3	-1	-1	-1	19
-1	-1	-1	-1	-1	-1	10	-1	-1	24	-1	36	-1	-1	-1	-1	-1	-1	-1	-1	-1	13	-1	-1	-1	-1	14	-1	-1	-1	-1	-1	-1	16	-1	23
-1	-1	-1	-1	-1	-1	-1	27	-1	-1	-1	-1	-1	-1	-1	-1	-1	-1	-1	35	-1	-1	-1	26	24	-1	-1	2	-1	-1	-1	-1	-1	-1	-1	-1
-1	-1	-1	10	-1	-1	-1	-1	-1	-1	-1	-1	-1	-1	-1	-1	-1	-1	-1	-1	-1	35	20	-1	3	34	-1	-1	-1	18	-1	-1	-1	-1	-1	-1
-1	-1	-1	-1	-1	-1	-1	-1	-1	-1	-1	-1	-1	-1	35	-1	-1	14	-1	25	9	-1	-1	-1	7	-1	-1	-1	23	-1	-1	-1	-1	-1	-1	-1
-1	-1	-1	-1	-1	33	-1	-1	-1	29	18	30	9	-1	23	-1	20	3	-1	4	-1	-1	-1	-1	-1	27	-1	-1	-1	36	-1	-1	-1	-1	-1	-1
26	-1	-1	2	-1	-1	-1	-1	-1	-1	-1	-1	-1	-1	-1	-1	-1	-1	29	-1	-1	-1	-1	15	-1	9	-1	-1	-1	-1	-1	-1	-1	-1	-1	-1
-1	-1	12	-1	-1	-1	-1	-1	-1	-1	3	-1	-1	-1	-1	36	-1	-1	-1	-1	11	-1	-1	-1	5	-1	-1	-1	-1	-1	29	-1	-1	-1	-1	-1
-1	-1	9	3	-1	-1	-1	-1	-1	34	-1	16	1	-1	-1	30	-1	-1	-1	-1	-1	-1	-1	-1	-1	-1	-1	-1	17	-1	-1	-1	-1	-1	-1	-1
-1	-1	-1	-1	-1	-1	-1	-1	-1	9	-1	-1	10	-1	-1	-1	-1	-1	-1	-1	-1	15	-1	-1	-1	-1	-1	-1	-1	-1	-1	-1	36	-1	30	-1
-1	-1	-1	-1	8	-1	-1	-1	-1	-1	-1	-1	-1	-1	-1	-1	-1	11	-1	-1	-1	-1	-1	-1	-1	-1	-1	-1	-1	-1	12	29	9	15	32	-1
-1	-1	-1	-1	-1	14	-1	5	-1	-1	-1	-1	-1	30	-1	-1	23	-1	-1	-1	-1	-1	-1	-1	4	-1	-1	-1	10	-1	-1	-1	3	-1	-1	-1
-1	-1	28	17	-1	-1	-1	-1	-1	-1	-1	7	-1	-1	18	-1	-1	-1	-1	-1	26	-1	-1	-1	-1	-1	-1	6	-1	-1	-1	-1	-1	23	-1	-1
-1	-1	-1	18	-1	-1	-1	-1	-1	4	25	-1	6	-1	-1	-1	7	-1	34	-1	-1	-1	14	-1	-1	3	-1	-1	-1	-1	-1	19	26	21	-1	-1
-1	-1	-1	23	-1	-1	13	-1	-1	-1	10	-1	-1	-1	-1	19	-1	-1	-1	-1	-1	-1	-1	-1	1	-1	-1	36	-1	-1	-1	-1	6	-1	-1	-1
12	-1	-1	-1	2	-1	-1	-1	-1	-1	-1	-1	-1	-1	1	-1	-1	-1	-1	-1	-1	-1	-1	-1	14	-1	-1	31	-1	-1	35	-1	-1	-1	-1	-1
-1	-1	-1	-1	7	-1	-1	-1	-1	27	26	-1	-1	-1	-1	-1	-1	-1	22	-1	-1	-1	-1	-1	-1	-1	-1	-1	-1	-1	30	-1	-1	-1	-1	2
-1	-1	30	-1	-1	-1	35	-1	-1	-1	-1	11	-1	-1	15	-1	-1	-1	13	24	-1	-1	-1	-1	-1	-1	23	-1	-1	-1	-1	-1	-1	-1	-1	-1
34	-1	-1	-1	-1	13	-1	-1	30	17	-1	-1	-1	7	-1	23	-1	-1	-1	-1	25	-1	-1	14	-1	6	-1	-1	-1	-1	-1	-1	-1	-1	-1	-1
-1	17	-1	-1	14	27	-1	-1	-1	-1	-1	18	-1	-1	-1	-1	-1	-1	-1	-1	-1	-1	4	-1	12	35	-1	-1	-1	-1	-1	-1	13	-1	-1	-1
-1	-1	-1	-1	-1	16	34	-1	-1	-1	-1	-1	-1	-1	22	-1	-1	5	-1	21	-1	-1	-1	2	-1	-1	-1	-1	-1	27	1	-1	-1	-1	-1	-1
